p tw 672 10641 8 
1 9 
1 11 
1 561 
1 563 
2 7 
2 10 
2 12 
2 562 
2 564 
3 8 
3 10 
3 553 
4 7 
4 9 
4 554 
5 9 
5 10 
5 555 
6 7 
6 8 
6 556 
11 18 
11 19 
11 563 
12 17 
12 20 
12 564 
13 18 
13 20 
13 23 
14 17 
14 19 
14 24 
15 19 
15 20 
15 25 
16 17 
16 18 
16 26 
21 28 
21 29 
21 31 
21 565 
21 567 
22 27 
22 30 
22 32 
22 566 
22 568 
23 28 
23 30 
24 27 
24 29 
25 29 
25 30 
26 27 
26 28 
31 38 
31 39 
31 567 
32 37 
32 40 
32 568 
33 38 
33 40 
33 43 
34 37 
34 39 
34 44 
35 39 
35 40 
35 45 
36 37 
36 38 
36 46 
41 48 
41 49 
41 51 
41 569 
41 571 
42 47 
42 50 
42 52 
42 570 
42 572 
43 48 
43 50 
44 47 
44 49 
45 49 
45 50 
46 47 
46 48 
51 58 
51 59 
51 571 
52 57 
52 60 
52 572 
53 58 
53 60 
53 63 
54 57 
54 59 
54 64 
55 59 
55 60 
55 65 
56 57 
56 58 
56 66 
61 68 
61 69 
61 71 
61 573 
61 575 
62 67 
62 70 
62 72 
62 574 
62 576 
63 68 
63 70 
64 67 
64 69 
65 69 
65 70 
66 67 
66 68 
71 78 
71 79 
71 575 
72 77 
72 80 
72 576 
73 78 
73 80 
73 83 
74 77 
74 79 
74 84 
75 79 
75 80 
75 85 
76 77 
76 78 
76 86 
81 88 
81 89 
81 91 
81 577 
81 579 
82 87 
82 90 
82 92 
82 578 
82 580 
83 88 
83 90 
84 87 
84 89 
85 89 
85 90 
86 87 
86 88 
91 98 
91 99 
91 579 
92 97 
92 100 
92 580 
93 98 
93 100 
93 103 
94 97 
94 99 
94 104 
95 99 
95 100 
95 105 
96 97 
96 98 
96 106 
101 108 
101 109 
101 111 
101 581 
101 583 
102 107 
102 110 
102 112 
102 582 
102 584 
103 108 
103 110 
104 107 
104 109 
105 109 
105 110 
106 107 
106 108 
111 118 
111 119 
111 583 
112 117 
112 120 
112 584 
113 118 
113 120 
113 123 
114 117 
114 119 
114 124 
115 119 
115 120 
115 125 
116 117 
116 118 
116 126 
121 128 
121 129 
121 131 
121 585 
121 587 
122 127 
122 130 
122 132 
122 586 
122 588 
123 128 
123 130 
124 127 
124 129 
125 129 
125 130 
126 127 
126 128 
131 138 
131 139 
131 587 
132 137 
132 140 
132 588 
133 138 
133 140 
133 143 
134 137 
134 139 
134 144 
135 139 
135 140 
135 145 
136 137 
136 138 
136 146 
141 148 
141 149 
141 151 
141 589 
141 591 
142 147 
142 150 
142 152 
142 590 
142 592 
143 148 
143 150 
144 147 
144 149 
145 149 
145 150 
146 147 
146 148 
151 158 
151 159 
151 591 
152 157 
152 160 
152 592 
153 158 
153 160 
153 163 
154 157 
154 159 
154 164 
155 159 
155 160 
155 165 
156 157 
156 158 
156 166 
161 168 
161 169 
161 171 
161 593 
161 595 
162 167 
162 170 
162 172 
162 594 
162 596 
163 168 
163 170 
164 167 
164 169 
165 169 
165 170 
166 167 
166 168 
171 178 
171 179 
171 595 
172 177 
172 180 
172 596 
173 178 
173 180 
173 183 
174 177 
174 179 
174 184 
175 179 
175 180 
175 185 
176 177 
176 178 
176 186 
181 188 
181 189 
181 191 
181 597 
181 599 
182 187 
182 190 
182 192 
182 598 
182 600 
183 188 
183 190 
184 187 
184 189 
185 189 
185 190 
186 187 
186 188 
191 198 
191 199 
191 599 
192 197 
192 200 
192 600 
193 198 
193 200 
193 203 
194 197 
194 199 
194 204 
195 199 
195 200 
195 205 
196 197 
196 198 
196 206 
201 208 
201 209 
201 211 
201 601 
201 603 
202 207 
202 210 
202 212 
202 602 
202 604 
203 208 
203 210 
204 207 
204 209 
205 209 
205 210 
206 207 
206 208 
211 218 
211 219 
211 603 
212 217 
212 220 
212 604 
213 218 
213 220 
213 223 
214 217 
214 219 
214 224 
215 219 
215 220 
215 225 
216 217 
216 218 
216 226 
221 228 
221 229 
221 231 
221 605 
221 607 
222 227 
222 230 
222 232 
222 606 
222 608 
223 228 
223 230 
224 227 
224 229 
225 229 
225 230 
226 227 
226 228 
231 238 
231 239 
231 607 
232 237 
232 240 
232 608 
233 238 
233 240 
233 243 
234 237 
234 239 
234 244 
235 239 
235 240 
235 245 
236 237 
236 238 
236 246 
241 248 
241 249 
241 251 
241 609 
241 611 
242 247 
242 250 
242 252 
242 610 
242 612 
243 248 
243 250 
244 247 
244 249 
245 249 
245 250 
246 247 
246 248 
251 258 
251 259 
251 611 
252 257 
252 260 
252 612 
253 258 
253 260 
253 263 
254 257 
254 259 
254 264 
255 259 
255 260 
255 265 
256 257 
256 258 
256 266 
261 268 
261 269 
261 271 
261 613 
261 615 
262 267 
262 270 
262 272 
262 614 
262 616 
263 268 
263 270 
264 267 
264 269 
265 269 
265 270 
266 267 
266 268 
271 278 
271 279 
271 615 
272 277 
272 280 
272 616 
273 278 
273 280 
273 283 
274 277 
274 279 
274 284 
275 279 
275 280 
275 285 
276 277 
276 278 
276 286 
281 288 
281 289 
281 291 
281 617 
281 619 
282 287 
282 290 
282 292 
282 618 
282 620 
283 288 
283 290 
284 287 
284 289 
285 289 
285 290 
286 287 
286 288 
291 298 
291 299 
291 619 
292 297 
292 300 
292 620 
293 298 
293 300 
293 303 
294 297 
294 299 
294 304 
295 299 
295 300 
295 305 
296 297 
296 298 
296 306 
301 308 
301 309 
301 311 
301 621 
301 623 
302 307 
302 310 
302 312 
302 622 
302 624 
303 308 
303 310 
304 307 
304 309 
305 309 
305 310 
306 307 
306 308 
311 318 
311 319 
311 623 
312 317 
312 320 
312 624 
313 318 
313 320 
313 323 
314 317 
314 319 
314 324 
315 319 
315 320 
315 325 
316 317 
316 318 
316 326 
321 328 
321 329 
321 331 
321 625 
321 627 
322 327 
322 330 
322 332 
322 626 
322 628 
323 328 
323 330 
324 327 
324 329 
325 329 
325 330 
326 327 
326 328 
331 338 
331 339 
331 627 
332 337 
332 340 
332 628 
333 338 
333 340 
333 343 
334 337 
334 339 
334 344 
335 339 
335 340 
335 345 
336 337 
336 338 
336 346 
341 348 
341 349 
341 351 
341 629 
341 631 
342 347 
342 350 
342 352 
342 630 
342 632 
343 348 
343 350 
344 347 
344 349 
345 349 
345 350 
346 347 
346 348 
351 358 
351 359 
351 631 
352 357 
352 360 
352 632 
353 358 
353 360 
353 363 
354 357 
354 359 
354 364 
355 359 
355 360 
355 365 
356 357 
356 358 
356 366 
361 368 
361 369 
361 371 
361 633 
361 635 
362 367 
362 370 
362 372 
362 634 
362 636 
363 368 
363 370 
364 367 
364 369 
365 369 
365 370 
366 367 
366 368 
371 378 
371 379 
371 635 
372 377 
372 380 
372 636 
373 378 
373 380 
373 383 
374 377 
374 379 
374 384 
375 379 
375 380 
375 385 
376 377 
376 378 
376 386 
381 388 
381 389 
381 391 
381 637 
381 639 
382 387 
382 390 
382 392 
382 638 
382 640 
383 388 
383 390 
384 387 
384 389 
385 389 
385 390 
386 387 
386 388 
391 398 
391 399 
391 639 
392 397 
392 400 
392 640 
393 398 
393 400 
393 403 
394 397 
394 399 
394 404 
395 399 
395 400 
395 405 
396 397 
396 398 
396 406 
401 408 
401 409 
401 411 
401 641 
401 643 
402 407 
402 410 
402 412 
402 642 
402 644 
403 408 
403 410 
404 407 
404 409 
405 409 
405 410 
406 407 
406 408 
411 418 
411 419 
411 643 
412 417 
412 420 
412 644 
413 418 
413 420 
413 423 
414 417 
414 419 
414 424 
415 419 
415 420 
415 425 
416 417 
416 418 
416 426 
421 428 
421 429 
421 431 
421 645 
421 647 
422 427 
422 430 
422 432 
422 646 
422 648 
423 428 
423 430 
424 427 
424 429 
425 429 
425 430 
426 427 
426 428 
431 438 
431 439 
431 647 
432 437 
432 440 
432 648 
433 438 
433 440 
433 443 
434 437 
434 439 
434 444 
435 439 
435 440 
435 445 
436 437 
436 438 
436 446 
441 448 
441 449 
441 451 
441 649 
441 651 
442 447 
442 450 
442 452 
442 650 
442 652 
443 448 
443 450 
444 447 
444 449 
445 449 
445 450 
446 447 
446 448 
451 458 
451 459 
451 651 
452 457 
452 460 
452 652 
453 458 
453 460 
453 463 
454 457 
454 459 
454 464 
455 459 
455 460 
455 465 
456 457 
456 458 
456 466 
461 468 
461 469 
461 471 
461 653 
461 655 
462 467 
462 470 
462 472 
462 654 
462 656 
463 468 
463 470 
464 467 
464 469 
465 469 
465 470 
466 467 
466 468 
471 478 
471 479 
471 655 
472 477 
472 480 
472 656 
473 478 
473 480 
473 483 
474 477 
474 479 
474 484 
475 479 
475 480 
475 485 
476 477 
476 478 
476 486 
481 488 
481 489 
481 491 
481 657 
481 659 
482 487 
482 490 
482 492 
482 658 
482 660 
483 488 
483 490 
484 487 
484 489 
485 489 
485 490 
486 487 
486 488 
491 498 
491 499 
491 659 
492 497 
492 500 
492 660 
493 498 
493 500 
493 503 
494 497 
494 499 
494 504 
495 499 
495 500 
495 505 
496 497 
496 498 
496 506 
501 508 
501 509 
501 511 
501 661 
501 663 
502 507 
502 510 
502 512 
502 662 
502 664 
503 508 
503 510 
504 507 
504 509 
505 509 
505 510 
506 507 
506 508 
511 518 
511 519 
511 663 
512 517 
512 520 
512 664 
513 518 
513 520 
513 523 
514 517 
514 519 
514 524 
515 519 
515 520 
515 525 
516 517 
516 518 
516 526 
521 528 
521 529 
521 531 
521 665 
521 667 
522 527 
522 530 
522 532 
522 666 
522 668 
523 528 
523 530 
524 527 
524 529 
525 529 
525 530 
526 527 
526 528 
531 538 
531 539 
531 667 
532 537 
532 540 
532 668 
533 538 
533 540 
533 543 
534 537 
534 539 
534 544 
535 539 
535 540 
535 545 
536 537 
536 538 
536 546 
541 548 
541 549 
541 551 
541 669 
541 671 
542 547 
542 550 
542 552 
542 670 
542 672 
543 548 
543 550 
544 547 
544 549 
545 549 
545 550 
546 547 
546 548 
551 558 
551 559 
551 671 
552 557 
552 560 
552 672 
553 558 
553 560 
554 557 
554 559 
555 559 
555 560 
556 557 
556 558 
561 562 
563 564 
565 566 
567 568 
569 570 
571 572 
573 574 
575 576 
577 578 
579 580 
581 582 
583 584 
585 586 
587 588 
589 590 
591 592 
593 594 
595 596 
597 598 
599 600 
601 602 
603 604 
605 606 
607 608 
609 610 
611 612 
613 614 
615 616 
617 618 
619 620 
621 622 
623 624 
625 626 
627 628 
629 630 
631 632 
633 634 
635 636 
637 638 
639 640 
641 642 
643 644 
645 646 
647 648 
649 650 
651 652 
653 654 
655 656 
657 658 
659 660 
661 662 
663 664 
665 666 
667 668 
669 670 
671 672 
